ass02/p1/ass02-p1.lp
\ File: ass02-p1.lp
\
\ Assignment 2
\ Problem 1
\
\ Authors: Dana Cyr
\          Jake Raynor
\          Adam Bowker
\          Brayden Golas
\

Maximize
  4 x1 + x2
Subject To
  8 x1 + 2 x2 <= 16
  5 x1 + 2 x2 <= 12
  x1 >= 0
  x2 >= 0
End